SPARKNaCl/why3-z3/sparknacl-secretbox.adb_31_29_range_check4_1.smt2
;; produced by z3_gnatprove.drv ;;
(set-info :smt-lib-version 2.5)
(set-info :source |VC generated by SPARK 2014|)
(set-info :category industrial)
(set-info :status unknown)
;;; generated by SMT-LIB2 driver
;;; SMT-LIB2 driver: bit-vectors, common part
;;; SMT-LIB2: integer arithmetic
(declare-datatypes ()
  ((bool__ref (bool__refqtmk (bool__content Bool)))))

(declare-sort byte 0)

;; "to_rep"
(declare-fun to_rep (byte) (_ BitVec 8))

;; "of_rep"
(declare-fun of_rep ((_ BitVec 8)) byte)

;; "inversion_axiom"
(assert
  (forall ((x byte)) (! (= (of_rep (to_rep x)) x) :pattern ((to_rep x)) )))

;; "range_axiom"
(assert true)

;; "coerce_axiom"
(assert
  (forall ((x (_ BitVec 8)))
    (! (= (to_rep (of_rep x)) x) :pattern ((to_rep (of_rep x))) )))

(declare-sort map1 0)

(declare-datatypes ()
  ((map__ref (map__refqtmk (map__content map1)))))

;; "has_bounds"
(declare-fun has_bounds (map1
  Int
  Int) Bool)

;; "get"
(declare-fun get (map1
  Int) byte)

;; "slide"
(declare-fun slide (map1
  Int
  Int) map1)

;; "slide_eq"
(assert
  (forall ((a map1) (first Int))
    (! (= (slide a first first) a) :pattern ((slide a first first)) )))

;; "slide_def"
(assert
  (forall ((a map1) (old_first Int) (new_first Int))
    (! (and
         (forall ((i Int))
           (! (= (get (slide a old_first new_first) i) (get
                                                         a
                                                         (- i (- new_first old_first)))) :pattern (
           (get
             (slide a old_first new_first)
             i)) ))
         (forall ((new_last Int))
           (! (=>
                (has_bounds a old_first (- new_last (- new_first old_first)))
                (has_bounds (slide a old_first new_first) new_first new_last)) :pattern (
           (has_bounds
             (slide a old_first new_first)
             new_first
             new_last)) ))) :pattern ((slide a old_first new_first)) )))

;; "slice"
(declare-fun slice (map1
  Int
  Int) map1)

;; "slice_eq"
(assert
  (forall ((a map1) (f Int) (l Int))
    (! (=> (has_bounds a f l) (= (slice a f l) a)) :pattern ((slice a f l)
    (has_bounds a f l)) )))

;; "slice_slice"
(assert
  (forall ((a map1) (f1 Int) (l1 Int) (f2 Int) (l2 Int))
    (! (=>
         (and (<= f1 f2) (<= l2 l1))
         (= (slice (slice a f1 l1) f2 l2) (slice a f2 l2))) :pattern (
    (slice
      (slice a f1 l1)
      f2
      l2)) )))

;; "slice_def"
(assert
  (forall ((a map1) (f Int) (l Int))
    (! (forall ((i Int))
         (! (=> (and (<= f i) (<= i l)) (= (get (slice a f l) i) (get a i))) :pattern (
         (get
           (slice a f l)
           i)) :pattern ((get a i)) )) :pattern ((slice a f l)) )))

;; "slice_has_bounds"
(assert
  (forall ((a map1) (f Int) (l Int))
    (! (has_bounds (slice a f l) f l) :pattern ((has_bounds
                                                  (slice a f l)
                                                  f
                                                  l)) )))

(declare-sort tinteger_32B 0)

;; "tinteger_32B'int"
(declare-fun tinteger_32Bqtint (tinteger_32B) Int)

;; "tinteger_32B'axiom"
(assert
  (forall ((i tinteger_32B))
    (and
      (<= (- 2147483648) (tinteger_32Bqtint i))
      (<= (tinteger_32Bqtint i) 2147483647))))

;; "in_range"
(define-fun in_range ((x Int)) Bool
  (and (<= (- 2147483648) x) (<= x 2147483647)))

(declare-const c__first tinteger_32B)

(declare-const c__last tinteger_32B)

;; "to_rep"
(define-fun to_rep1 ((x tinteger_32B)) Int
  (tinteger_32Bqtint x))

;; "of_rep"
(declare-fun of_rep1 (Int) tinteger_32B)

;; "inversion_axiom"
(assert
  (forall ((x tinteger_32B))
    (! (= (of_rep1 (to_rep1 x)) x) :pattern ((to_rep1 x)) )))

;; "range_axiom"
(assert
  (forall ((x tinteger_32B))
    (! (in_range (to_rep1 x)) :pattern ((to_rep1 x)) )))

;; "coerce_axiom"
(assert
  (forall ((x Int))
    (! (=> (in_range x) (= (to_rep1 (of_rep1 x)) x)) :pattern ((to_rep1
                                                                 (of_rep1 x))) )))

;; "in_range"
(define-fun in_range1 ((x Int)) Bool
  (and (<= 0 x) (<= x 2147483647)))

(declare-datatypes ()
  ((t (tqtmk (rec__first tinteger_32B)(rec__last tinteger_32B)))))

;; "mk"
(declare-fun mk (Int
  Int) t)

;; "mk_def"
(assert
  (forall ((f Int) (l Int))
    (! (=>
         (in_range f)
         (=>
           (in_range l)
           (and
             (= (to_rep1 (rec__first (mk f l))) f)
             (= (to_rep1 (rec__last (mk f l))) l)))) :pattern ((mk f l)) )))

;; "dynamic_property"
(define-fun dynamic_property ((range_first Int) (range_last Int) (low Int) (high Int)) Bool
  (and
    (in_range low)
    (and
      (in_range high)
      (=> (<= low high) (and (in_range1 low) (in_range1 high))))))

(declare-datatypes ()
  ((us_t (us_tqtmk (elts map1)(rt t)))))

;; "to_array"
(define-fun to_array ((a us_t)) map1
  (elts a))

;; "of_array"
(define-fun of_array ((a map1) (f Int) (l Int)) us_t
  (us_tqtmk a (mk f l)))

;; "first"
(define-fun first ((a us_t)) Int
  (to_rep1 (rec__first (rt a))))

;; "last"
(define-fun last ((a us_t)) Int
  (to_rep1 (rec__last (rt a))))

;; "length"
(define-fun length ((a us_t)) Int
  (ite (<= (first a) (last a)) (+ (- (last a) (first a)) 1) 0))

;; "well_formed"
(define-fun well_formed ((a us_t)) Bool
  (has_bounds
    (elts a)
    (to_rep1 (rec__first (rt a)))
    (to_rep1 (rec__last (rt a)))))

(declare-const m us_t)

(declare-const n map1)

;; "equal"
(declare-fun equal (us_t
  us_t) Bool)

;; "equal__function_guard"
(declare-fun equal__function_guard (Bool
  us_t
  us_t) Bool)

(declare-const zero_bytes_32 map1)

(declare-const zero_bytes_16 map1)

(declare-sort us_main_type 0)

(declare-datatypes ()
  ((us_split_fields
   (us_split_fieldsqtmk
   (rec__ada___sparknacl__mac__poly_1305_key us_main_type)))))

(declare-datatypes ()
  ((us_split_fields__ref
   (us_split_fields__refqtmk (us_split_fields__content us_split_fields)))))

(declare-datatypes ()
  ((us_rep (us_repqtmk (us_split_fields1 us_split_fields)))))

;; "dynamic_invariant"
(define-fun dynamic_invariant ((temp___expr_254 us_t) (temp___is_init_250 Bool) (temp___skip_constant_251 Bool) (temp___do_toplevel_252 Bool) (temp___do_typ_inv_253 Bool)) Bool
  (and
    (=>
      (not (= temp___skip_constant_251 true))
      (dynamic_property
        0
        2147483647
        (first temp___expr_254)
        (last temp___expr_254)))
    (well_formed temp___expr_254)))

;; "sparknacl__zero_bytes_32__aggregate_def"
(declare-fun sparknacl__zero_bytes_32__aggregate_def ((_ BitVec 8)) map1)

;; "sparknacl__zero_bytes_16__aggregate_def"
(declare-fun sparknacl__zero_bytes_16__aggregate_def ((_ BitVec 8)) map1)

;; "zero_bytes_32__def_axiom"
(assert
  (= zero_bytes_32 (let ((temp___174 (sparknacl__zero_bytes_32__aggregate_def
                                       #x00)))
                     (let ((temp___175 temp___174)) temp___175))))

;; "def_axiom"
(assert
  (forall ((temp___170 (_ BitVec 8)))
    (let ((temp___171 (sparknacl__zero_bytes_32__aggregate_def temp___170)))
      (and
        (has_bounds temp___171 0 31)
        (forall ((temp___172 Int))
          (! (=>
               (and (<= 0 temp___172) (<= temp___172 31))
               (= (to_rep (get temp___171 temp___172)) temp___170)) :pattern (
          (get
            temp___171
            temp___172)) ))))))

;; "zero_bytes_16__def_axiom"
(assert
  (= zero_bytes_16 (let ((temp___180 (sparknacl__zero_bytes_16__aggregate_def
                                       #x00)))
                     (let ((temp___181 temp___180)) temp___181))))

;; "def_axiom"
(assert
  (forall ((temp___176 (_ BitVec 8)))
    (let ((temp___177 (sparknacl__zero_bytes_16__aggregate_def temp___176)))
      (and
        (has_bounds temp___177 0 15)
        (forall ((temp___178 Int))
          (! (=>
               (and (<= 0 temp___178) (<= temp___178 15))
               (= (to_rep (get temp___177 temp___178)) temp___176)) :pattern (
          (get
            temp___177
            temp___178)) ))))))

;; "equal__post_axiom"
(assert
  (forall ((param__x us_t) (param__y us_t))
    (! (=>
         (and
           (and
             (dynamic_invariant param__x true false true true)
             (dynamic_invariant param__y true false true true))
           (and
             (= (first param__x) (first param__y))
             (= (last param__x) (last param__y))))
         (let ((result (equal param__x param__y)))
           (=>
             (equal__function_guard result param__x param__y)
             (=
               (= result true)
               (forall ((i Int))
                 (=>
                   (and (<= (first param__x) i) (<= i (last param__x)))
                   (= (to_rep (get (to_array param__x) i)) (to_rep
                                                             (get
                                                               (to_array
                                                                 param__y)
                                                               i))))))))) :pattern (
    (equal
      param__x
      param__y)) )))

(declare-const c map1)

(declare-const k2__split_fields us_main_type)

(declare-const r map1)

;; "r'unused"
(define-fun rqtunused () map__ref
  (map__refqtmk r))

;; "k2__split_fields'unused"
(define-fun k2__split_fieldsqtunused () us_split_fields__ref
  (us_split_fields__refqtmk (us_split_fieldsqtmk k2__split_fields)))

;; "c'unused"
(define-fun cqtunused () map__ref
  (map__refqtmk c))

;; "Assume"
(assert (has_bounds zero_bytes_16 0 15))

(declare-const temp___822 map1)

;; "H"
(assert (has_bounds temp___822 0 15))

;; "H"
(assert
  (forall ((temp___179 Int))
    (! (=>
         (and (<= 0 temp___179) (<= temp___179 15))
         (= (to_rep (get temp___822 temp___179)) #x00)) :pattern ((get
                                                                    temp___822
                                                                    temp___179)) )))

;; "H"
(assert (= temp___822 (sparknacl__zero_bytes_16__aggregate_def #x00)))

;; "sparknacl__zero_bytes_16__aggregate_def'result'unused"
(define-fun sparknacl__zero_bytes_16__aggregate_defqtresultqtunused () map1
  temp___822)

;; "Assume"
(assert (= temp___822 zero_bytes_16))

;; "Assume"
(assert (has_bounds zero_bytes_32 0 31))

(declare-const temp___827 map1)

;; "H"
(assert (has_bounds temp___827 0 31))

;; "H"
(assert
  (forall ((temp___173 Int))
    (! (=>
         (and (<= 0 temp___173) (<= temp___173 31))
         (= (to_rep (get temp___827 temp___173)) #x00)) :pattern ((get
                                                                    temp___827
                                                                    temp___173)) )))

;; "H"
(assert (= temp___827 (sparknacl__zero_bytes_32__aggregate_def #x00)))

;; "sparknacl__zero_bytes_32__aggregate_def'result'unused"
(define-fun sparknacl__zero_bytes_32__aggregate_defqtresultqtunused () map1
  temp___827)

;; "Assume"
(assert (= temp___827 zero_bytes_32))

;; "Assume"
(assert
  (and
    (dynamic_property 0 2147483647 (to_rep1 c__first) (to_rep1 c__last))
    (well_formed (of_array c (to_rep1 c__first) (to_rep1 c__last)))))

;; "Assume"
(assert (dynamic_invariant m true false true true))

;; "Assume"
(assert (has_bounds n 0 23))

;; "Assume"
(assert true)

;; "H"
(assert
  (forall ((temp___819 us_t) (temp___818 us_t))
    (equal__function_guard
      (equal temp___818 temp___819)
      temp___818
      temp___819)))

;; "Assume"
(assert
  (and
    (and
      (and
        (and (= (first m) 0) (= (to_rep1 c__first) 0))
        (= (to_rep1 c__last) (last m)))
      (<= 32 (length m)))
    (= (let ((temp___819 (of_array zero_bytes_32 0 31)))
         (let ((temp___818 (of_array (slice (to_array m) 0 31) 0 31)))
           (equal temp___818 temp___819))) true)))

;; "Assume"
(assert true)

;; "Assume"
(assert true)

;; "Assume"
(assert true)

;; "Assume"
(assert (has_bounds r 0 15))

(declare-const o Bool)

(declare-const o1 Int)

;; "H"
(assert (= o1 (first m)))

(declare-const firstqtresultqtunused Int)

;; "H"
(assert (= firstqtresultqtunused o1))

(declare-const infix_eqqtresultqtunused Bool)

;; "H"
(assert (= infix_eqqtresultqtunused (ite (= o1 0) true false)))

(declare-const o2 Bool)

(declare-const o3 Int)

(declare-const to_repqtresultqtunused Int)

(declare-const o4 Int)

(declare-const to_repqtresultqtunused1 Int)

(declare-const map__contentqtresultqtunused map1)

(declare-const of_arrayqtresultqtunused us_t)

(declare-const o5 Int)

(declare-const to_repqtresultqtunused2 Int)

(declare-const infix_eqqtresultqtunused1 Bool)

;; "H"
(assert
  (ite (= o1 0)
    (and
      (= (to_rep1 c__last) o3)
      (and
        (= to_repqtresultqtunused o3)
        (and
          (= (to_rep1 c__first) o4)
          (and
            (= to_repqtresultqtunused1 o4)
            (and
              (= map__contentqtresultqtunused c)
              (and
                (= of_arrayqtresultqtunused (of_array c o4 o3))
                (and
                  (= (to_rep1 c__first) o5)
                  (and
                    (= to_repqtresultqtunused2 o5)
                    (and
                      (= o2 (ite (= o5 0) true false))
                      (= infix_eqqtresultqtunused1 o2))))))))))
    (= o2 false)))

(declare-const o6 Bool)

(declare-const o7 Int)

(declare-const lastqtresultqtunused Int)

(declare-const o8 Int)

(declare-const to_repqtresultqtunused3 Int)

(declare-const o9 Int)

(declare-const to_repqtresultqtunused4 Int)

(declare-const map__contentqtresultqtunused1 map1)

(declare-const of_arrayqtresultqtunused1 us_t)

(declare-const o10 Int)

(declare-const to_repqtresultqtunused5 Int)

(declare-const infix_eqqtresultqtunused2 Bool)

;; "H"
(assert
  (ite (= o2 true)
    (and
      (= o7 (last m))
      (and
        (= lastqtresultqtunused o7)
        (and
          (= (to_rep1 c__last) o8)
          (and
            (= to_repqtresultqtunused3 o8)
            (and
              (= (to_rep1 c__first) o9)
              (and
                (= to_repqtresultqtunused4 o9)
                (and
                  (= map__contentqtresultqtunused1 c)
                  (and
                    (= of_arrayqtresultqtunused1 (of_array c o9 o8))
                    (and
                      (= (to_rep1 c__last) o10)
                      (and
                        (= to_repqtresultqtunused5 o10)
                        (and
                          (= o6 (ite (= o10 o7) true false))
                          (= infix_eqqtresultqtunused2 o6))))))))))))
    (= o6 false)))

(declare-const o11 Bool)

(declare-const o12 Int)

(declare-const lengthqtresultqtunused Int)

(declare-const infix_gteqqtresultqtunused Bool)

;; "H"
(assert
  (ite (= o6 true)
    (and
      (= o12 (length m))
      (and
        (= lengthqtresultqtunused o12)
        (and
          (= o11 (ite (<= 32 o12) true false))
          (= infix_gteqqtresultqtunused o11))))
    (= o11 false)))

(declare-const o13 us_t)

(declare-const of_arrayqtresultqtunused2 us_t)

(declare-const o14 map1)

(declare-const to_arrayqtresultqtunused map1)

(declare-const temp___788 map1)

(declare-const sliceqtresultqtunused map1)

(declare-const o15 us_t)

(declare-const of_arrayqtresultqtunused3 us_t)

(declare-const equalqtresultqtunused Bool)

;; "H"
(assert
  (ite (= o11 true)
    (and
      (= o13 (of_array zero_bytes_32 0 31))
      (and
        (= of_arrayqtresultqtunused2 o13)
        (and
          (=>
            (<= 0 31)
            (and
              (and (<= (first m) 0) (<= 0 (last m)))
              (and (<= (first m) 31) (<= 31 (last m)))))
          (and
            (= o14 (to_array m))
            (and
              (= to_arrayqtresultqtunused o14)
              (and
                (= temp___788 (slice o14 0 31))
                (and
                  (= sliceqtresultqtunused temp___788)
                  (and
                    (= o15 (of_array temp___788 0 31))
                    (and
                      (= of_arrayqtresultqtunused3 o15)
                      (and
                        (= o (equal o15 o13))
                        (and
                          (and
                            (equal__function_guard o o15 o13)
                            (=
                              (= o true)
                              (forall ((i Int))
                                (=>
                                  (and (<= 0 i) (<= i 31))
                                  (= (to_rep (get temp___788 i)) (to_rep
                                                                   (get
                                                                    zero_bytes_32
                                                                    i)))))))
                          (= equalqtresultqtunused o))))))))))))
    (= o false)))

(declare-const spark__branch Bool)

;; "spark__branch'unused"
(define-fun spark__branchqtunused () bool__ref
  (bool__refqtmk spark__branch))

;; "H"
(assert (= spark__branch o))

;; "bool__content'result'unused"
(define-fun bool__contentqtresultqtunused () Bool
  spark__branch)

;; "H"
(assert (= spark__branch true))

(declare-const o16 Int)

;; "Ensures"
(assert (= (to_rep1 c__last) o16))

;; "to_rep'result'unused"
(define-fun to_repqtresultqtunused6 () Int
  o16)

(declare-const o17 Int)

;; "Ensures"
(assert (= (to_rep1 c__first) o17))

;; "to_rep'result'unused"
(define-fun to_repqtresultqtunused7 () Int
  o17)

;; "map__content'result'unused"
(define-fun map__contentqtresultqtunused2 () map1
  c)

;; "temp___712"
(define-fun temp___712 () us_t
  (of_array c o17 o16))

;; "of_array'result'unused"
(define-fun of_arrayqtresultqtunused4 () us_t
  temp___712)

;; "temp___713"
(define-fun temp___713 () map1
  c)

;; "to_array'result'unused"
(define-fun to_arrayqtresultqtunused1 () map1
  temp___713)

;; "o"
(define-fun o18 () Int
  o16)

;; "last'result'unused"
(define-fun lastqtresultqtunused1 () Int
  o18)

;; "o"
(define-fun o19 () Int
  o17)

;; "first'result'unused"
(define-fun firstqtresultqtunused1 () Int
  o19)

;; "temp___compl_714"
(define-fun temp___compl_714 () us_t
  (of_array temp___713 o19 o18))

;; "of_array'result'unused"
(define-fun of_arrayqtresultqtunused5 () us_t
  temp___compl_714)

;; "o"
(define-fun o20 () map1
  temp___713)

;; "to_array'result'unused"
(define-fun to_arrayqtresultqtunused2 () map1
  o20)

;; "param__c'unused"
(define-fun param__cqtunused () map__ref
  (map__refqtmk o20))

;; "map__ref'mk'result'unused"
(define-fun map__refqtmkqtresultqtunused () map__ref
  (map__refqtmk o20))

;; "o"
(define-fun o21 () us_t
  m)

;; "o"
(define-fun o22 () Int
  o18)

;; "last'result'unused"
(define-fun lastqtresultqtunused2 () Int
  o22)

(declare-const o23 tinteger_32B)

;; "Ensures"
(assert (= (to_rep1 o23) o22))

;; "of_rep'result'unused"
(define-fun of_repqtresultqtunused () tinteger_32B
  o23)

;; "o"
(define-fun o24 () Int
  o19)

;; "first'result'unused"
(define-fun firstqtresultqtunused2 () Int
  o24)

(declare-const o25 tinteger_32B)

;; "Ensures"
(assert (= (to_rep1 o25) o24))

;; "of_rep'result'unused"
(define-fun of_repqtresultqtunused1 () tinteger_32B
  o25)

(declare-const param__c map1)

;; "param__c'unused"
(define-fun param__cqtunused1 () map__ref
  (map__refqtmk param__c))

;; "H"
(assert
  (dynamic_invariant
    (of_array param__c (to_rep1 o25) (to_rep1 o23))
    true
    true
    true
    true))

;; "H"
(assert true)

;; "H"
(assert true)

;; "o"
(define-fun o26 () Int
  o18)

;; "last'result'unused"
(define-fun lastqtresultqtunused3 () Int
  o26)

;; "o"
(define-fun o27 () Int
  o19)

;; "first'result'unused"
(define-fun firstqtresultqtunused3 () Int
  o27)

;; "map__content'result'unused"
(define-fun map__contentqtresultqtunused3 () map1
  param__c)

;; "temp___717"
(define-fun temp___717 () us_t
  (of_array param__c o27 o26))

;; "of_array'result'unused"
(define-fun of_arrayqtresultqtunused6 () us_t
  temp___717)

(declare-const o28 Int)

;; "Ensures"
(assert (= (to_rep1 c__first) o28))

;; "to_rep'result'unused"
(define-fun to_repqtresultqtunused8 () Int
  o28)

;; "o"
(define-fun o29 () Int
  o27)

;; "first'result'unused"
(define-fun firstqtresultqtunused4 () Int
  o29)

;; "o"
(define-fun o30 () map1
  param__c)

;; "to_array'result'unused"
(define-fun to_arrayqtresultqtunused3 () map1
  o30)

;; "temp___721"
(define-fun temp___721 () map1
  (slide o30 o29 o28))

;; "slide'result'unused"
(define-fun slideqtresultqtunused () map1
  temp___721)

(declare-const o31 Int)

;; "Ensures"
(assert (= (to_rep1 c__last) o31))

;; "to_rep'result'unused"
(define-fun to_repqtresultqtunused9 () Int
  o31)

(declare-const o32 Int)

;; "Ensures"
(assert (= (to_rep1 c__first) o32))

;; "to_rep'result'unused"
(define-fun to_repqtresultqtunused10 () Int
  o32)

;; "o"
(define-fun o33 () us_t
  (of_array temp___721 o32 o31))

;; "of_array'result'unused"
(define-fun of_arrayqtresultqtunused7 () us_t
  o33)

;; "o"
(define-fun o34 () map1
  temp___721)

;; "to_array'result'unused"
(define-fun to_arrayqtresultqtunused4 () map1
  o34)

(declare-const c1 map1)

;; "c'unused"
(define-fun cqtunused1 () map__ref
  (map__refqtmk c1))

;; "H"
(assert (= c1 o34))

;; "o"
(define-fun o35 () us_split_fields
  (us_split_fieldsqtmk k2__split_fields))

;; "__split_fields__content'result'unused"
(define-fun us_split_fields__contentqtresultqtunused () us_split_fields
  o35)

;; "__rep'mk'result'unused"
(define-fun us_repqtmkqtresultqtunused () us_rep
  (us_repqtmk o35))

(declare-const o36 Int)

;; "Ensures"
(assert (= (to_rep1 c__last) o36))

;; "to_rep'result'unused"
(define-fun to_repqtresultqtunused11 () Int
  o36)

(declare-const o37 Int)

;; "Ensures"
(assert (= (to_rep1 c__first) o37))

;; "to_rep'result'unused"
(define-fun to_repqtresultqtunused12 () Int
  o37)

;; "map__content'result'unused"
(define-fun map__contentqtresultqtunused4 () map1
  c1)

;; "temp___723"
(define-fun temp___723 () us_t
  (of_array c1 o37 o36))

;; "of_array'result'unused"
(define-fun of_arrayqtresultqtunused8 () us_t
  temp___723)

;; "H"
(assert (<= 0 31))

;; Goal "def'vc"
;; File "sparknacl-secretbox.ads", line 13, characters 0-0
(assert
  (not (<= 31 o36)))

(check-sat)
